unsat
(:binary-propagations  17
 :conflicts            1
 :final-checks         1
 :max-generation       1
 :max-memory           23.66
 :memory               20.97
 :mk-bool-var          537
 :mk-clause            158
 :mk-clause-binary     524
 :num-allocs           9231146
 :num-checks           1
 :propagations         17
 :quant-instantiations 114
 :restarts             1
 :rlimit-count         113127
 :time                 0.02)
